************************************************************************
file with basedata            : md368_.bas
initial value random generator: 1653838836
************************************************************************
projects                      :  1
jobs (incl. supersource/sink ):  22
horizon                       :  145
RESOURCES
  - renewable                 :  2   R
  - nonrenewable              :  2   N
  - doubly constrained        :  0   D
************************************************************************
PROJECT INFORMATION:
pronr.  #jobs rel.date duedate tardcost  MPM-Time
    1     20      0       16       10       16
************************************************************************
PRECEDENCE RELATIONS:
jobnr.    #modes  #successors   successors
   1        1          3           2   3   4
   2        3          3           5  15  18
   3        3          3           7   9  20
   4        3          3           6  10  11
   5        3          2           7   8
   6        3          2          18  19
   7        3          1          14
   8        3          3          12  14  20
   9        3          3          11  14  16
  10        3          3          17  18  20
  11        3          2          13  21
  12        3          2          13  16
  13        3          1          17
  14        3          1          19
  15        3          2          16  17
  16        3          1          21
  17        3          1          19
  18        3          1          21
  19        3          1          22
  20        3          1          22
  21        3          1          22
  22        1          0        
************************************************************************
REQUESTS/DURATIONS:
jobnr. mode duration  R 1  R 2  N 1  N 2
------------------------------------------------------------------------
  1      1     0       0    0    0    0
  2      1     1       7    7    6    3
         2     2       1    6    5    2
         3     2       3    3    5    1
  3      1     1       5    7   10   10
         2     2       4    5    7   10
         3     8       1    3    7   10
  4      1     2       5    7    9    4
         2     2       5    9    6    4
         3     4       4    7    5    3
  5      1     1       5    7    8    5
         2     3       4    6    4    4
         3     3       4    7    4    3
  6      1     2       5    6    5   10
         2     3       4    3    4    7
         3     5       4    2    2    5
  7      1     2       5    7    7   10
         2     5       3    6    6    9
         3     6       2    6    6    7
  8      1     2       8    3    4    9
         2     6       6    3    4    8
         3     8       6    2    3    8
  9      1     5       7    8    7   10
         2     7       4    7    6    6
         3     8       3    5    4    4
 10      1     1       8    5    4    5
         2     7       6    4    4    4
         3    10       6    4    4    3
 11      1     1       8    9    2    4
         2     3       7    9    2    3
         3     4       5    8    1    3
 12      1     2       3    5    3    7
         2     8       2    4    3    7
         3    10       2    4    3    3
 13      1     2       8    4    7    8
         2     7       8    4    5    7
         3     8       7    1    5    3
 14      1     1       6    8    6    6
         2     5       5    5    5    4
         3     6       4    5    5    4
 15      1     3       5    8    6    6
         2    10       3    2    2    6
         3    10       4    2    4    4
 16      1     1       2    9    7    7
         2     1       2    8    8    7
         3     8       2    8    7    7
 17      1     3       4    8    7    4
         2     8       4    8    6    4
         3    10       3    7    2    4
 18      1     1       6    8    4   10
         2     6       6    6    3    9
         3    10       2    6    3    9
 19      1     4       6    2    8    3
         2     6       6    2    4    2
         3     6       5    2    7    1
 20      1     1       6    9    5    2
         2     3       6    4    5    2
         3     9       6    4    2    1
 21      1     5       6   10    5    8
         2     8       5    9    5    7
         3    10       5    8    3    7
 22      1     0       0    0    0    0
************************************************************************
RESOURCEAVAILABILITIES:
  R 1  R 2  N 1  N 2
   38   37   99  111
************************************************************************
MAXIMAL LAGS:
from  to  type  delay
    1   12   ES      0
    1    2   ES      0
    2   12   ES      0
    1    3   ES      0
    3   12   ES      0
    1    4   ES      0
    4   12   ES      0
    1    5   ES      0
    5   12   ES      0
    1    6   ES      0
    6   12   ES      0
    1    7   ES      0
    7   12   ES      0
    1    8   ES      0
    8   12   ES      0
    1    9   ES      0
    9   12   ES      0
    1   10   ES      0
   10   12   ES      0
    1   11   ES      0
   11   12   ES      0
    1   12   ES      0
    2    5   SS      9
    2    5   SE     -3
    2    5   ES    -11
    2    5   EE     -2
    2   15   SS      4
    2   15   SE     -5
    2   15   ES     -2
    2   15   EE     -2
    2   18   SS     10
    2   18   SE    -12
    2   18   ES    -10
    2   18   EE      3
    3    7   SS     -7
    3    7   SE      2
    3    7   ES     -7
    3    7   EE      2
    3    9   SS      8
    3    9   SE      7
    3    9   ES      2
    3    9   EE     -5
    3   20   SS     11
    3   20   SE     -8
    3   20   ES      5
    3   20   EE     -7
    4    6   SS      6
    4    6   SE    -12
    4    6   ES     -9
    4    6   EE     10
    4   10   SS      5
    4   10   SE     -5
    4   10   ES     -8
    4   10   EE    -12
    4   11   SS     -1
    4   11   SE     -9
    4   11   ES    -10
    4   11   EE     12
    5    7   SS     -7
    5    7   SE    -10
    5    7   ES     -6
    5    7   EE     -4
    5    8   SS    -12
    5    8   SE      1
    5    8   ES     -6
    5    8   EE      0
    6   18   SS      5
    6   18   SE    -12
    6   18   ES    -10
    6   18   EE      7
    6   19   SS      7
    6   19   SE    -11
    6   19   ES     -1
    6   19   EE    -12
    7   14   SS     -7
    7   14   SE     -3
    7   14   ES    -11
    7   14   EE      0
    8   14   SS     -2
    8   14   SE    -10
    8   14   ES    -10
    8   14   EE      9
    8   20   SS      3
    8   20   SE      8
    8   20   ES     10
    8   20   EE     -4
    9   11   SS      3
    9   11   SE    -10
    9   11   ES     11
    9   11   EE    -10
    9   14   SS      2
    9   14   SE    -11
    9   14   ES      9
    9   14   EE      0
    9   16   SS     -4
    9   16   SE      5
    9   16   ES     -1
    9   16   EE      2
   10   17   SS      6
   10   17   SE      1
   10   17   ES      4
   10   17   EE      5
   10   18   SS      0
   10   18   SE     -6
   10   18   ES      8
   10   18   EE      9
   10   20   SS    -10
   10   20   SE     -7
   10   20   ES     -4
   10   20   EE    -11
   11   13   SS      2
   11   13   SE     11
   11   13   ES      9
   11   13   EE      7
   11   21   SS    -12
   11   21   SE     -3
   11   21   ES      8
   11   21   EE     -3
   12   13   SS      5
   12   13   SE      9
   12   13   ES    -10
   12   13   EE     -5
   12   16   SS      5
   12   16   SE      9
   12   16   ES      4
   12   16   EE     -9
   13   17   SS      6
   13   17   SE    -11
   13   17   ES     -9
   13   17   EE     -9
   14   19   SS     12
   14   19   SE     -4
   14   19   ES     -2
   14   19   EE     10
   15   16   SS      1
   15   16   SE      3
   15   16   ES     10
   15   16   EE      0
   15   17   SS      2
   15   17   SE      2
   15   17   ES      1
   15   17   EE    -10
   16   21   SS      6
   16   21   SE     -2
   16   21   ES     -8
   16   21   EE     -4
   17   19   SS      6
   17   19   SE      0
   17   19   ES     11
   17   19   EE    -12
   18   21   SS     -9
   18   21   SE      3
   18   21   ES    -11
   18   21   EE      6
   19   22   SS     -8
   19   22   SE     -9
   19   22   ES      2
   19   22   EE      1
   20   22   SS     -3
   20   22   SE     -2
   20   22   ES    -10
   20   22   EE      3
   21   22   SS      2
   21   22   SE     12
   21   22   ES    -11
   21   22   EE     -8
************************************************************************
